c [MSE2022] -- begin -- [MSE2022]
0.00/0.01	c
0.00/0.01	c NuWLS based on TT-Open-WBO-Inc:	 an Anytime MaxSAT Solver --- based on Glucose4.1 (core version)
0.00/0.01	c Version:	 MaxSAT Evaluation 2021
0.00/0.01	c Author of NuWLS:	 Yi Chu, Xiang He
0.00/0.01	c Author of TT-Open-WBO-Inc:	 Alexander Nadel
0.00/0.01	c Authors of the baseline solver Open-WBO-Inc:	 Saurabh Joshi, Prateek Kumar, Ruben Martins, Sukrut Rao
0.00/0.01	c WARNING: for repeatability, setting FPU to use double precision
0.00/0.01	c |                                                                                                       |
0.00/0.01	c ========================================[ Problem Statistics ]===========================================
0.00/0.01	c |                                                                                                       |
0.00/0.01	c |  Problem Format:             MaxSAT                                                                   |
0.00/0.01	c |  Problem Type:           Unweighted                                                                   |
0.00/0.01	c |  Number of variables:          1173                                                                   |
0.00/0.01	c |  Number of hard clauses:          0                                                                   |
0.00/0.01	c |  Number of soft clauses:       6506                                                                   |
0.00/0.01	c |  Number of cardinality:           0                                                                   |
0.00/0.01	c |  Number of PB :                   0                                                                   |
0.00/0.01	c |  Parse time:                   0.00 s                                                                 |
0.00/0.01	c |                                                                                                       |
0.00/0.01	c | best-alg-selector overriden target_vars_bump_val to 0, since it hadn't been set by the user |
0.00/0.01	c | best-alg-selector overriden ms_model_per_sec_thr to 2, since it hadn't been set by the user |
0.00/0.01	c | best-alg-selector overriden ms_mutation_classes to 0, since it hadn't been set by the user |
0.00/0.01	c | best-alg-selector overriden ms_chrono to 100, since it hadn't been set by the user |
0.00/0.01	c ==========================================[ Solver Settings ]============================================
0.00/0.01	c |                                                                                                       |
0.00/0.01	c |  Algorithm:                     OBV                                                                   |
0.00/0.01	c |  Cardinality Encoding:       Modulo Totalizer                                                         |
0.00/0.01	c |  Limit number conflicts:       1000                                                                   |
0.00/0.01	c |  Limit number iterations: 2147483647                                                                   |
0.00/0.01	c |  Global limit number conflicts:   F                                                                   |
0.00/0.01	c |                                                                                                       |
0.00/0.01	c Mrs. Beaver incomplete stage
0.00/0.01	o 1074
0.00/0.01	c total_lit_count 14185
0.00/0.01	c before build neighbor
0.00/0.01	c build instime is 0
0.00/0.01	c using neighbor 
0.00/0.01	c build NuWLS instance done!
0.00/0.01	c changing to NuWLS solver!!!
0.00/0.01	c problem weighted = 0
0.00/0.01	o 1074
0.00/0.01	o 1070
0.00/0.01	o 1065
0.00/0.01	o 1060
0.00/0.01	o 1056
0.00/0.01	o 1052
0.00/0.01	o 1047
0.00/0.01	o 1043
0.00/0.01	o 1039
0.00/0.01	o 1035
0.00/0.01	o 1031
0.00/0.01	o 1028
0.00/0.01	o 1024
0.00/0.01	o 1020
0.00/0.01	o 1017
0.00/0.01	o 1014
0.00/0.01	o 1011
0.00/0.01	o 1008
0.00/0.01	o 1005
0.00/0.01	o 1002
0.00/0.01	o 999
0.00/0.01	o 996
0.00/0.01	o 993
0.00/0.01	o 990
0.00/0.01	o 987
0.00/0.01	o 984
0.00/0.01	o 981
0.00/0.01	o 978
0.00/0.01	o 975
0.00/0.01	o 972
0.00/0.01	o 969
0.00/0.01	o 966
0.00/0.01	o 963
0.00/0.01	o 960
0.00/0.01	o 957
0.00/0.01	o 955
0.00/0.01	o 951
0.00/0.01	o 948
0.00/0.01	o 946
0.00/0.01	o 943
0.00/0.01	o 941
0.00/0.01	o 939
0.00/0.01	o 937
0.00/0.01	o 935
0.00/0.01	o 933
0.00/0.01	o 931
0.00/0.01	o 929
0.00/0.01	o 927
0.00/0.01	o 925
0.00/0.01	o 923
0.00/0.01	o 921
0.00/0.01	o 919
0.00/0.01	o 917
0.00/0.01	o 915
0.00/0.01	o 913
0.00/0.01	o 911
0.00/0.01	o 909
0.00/0.01	o 907
0.00/0.01	o 905
0.00/0.01	o 903
0.00/0.01	o 901
0.00/0.01	o 899
0.00/0.01	o 897
0.00/0.01	o 895
0.00/0.01	o 893
0.00/0.01	o 891
0.00/0.01	o 889
0.00/0.01	o 886
0.00/0.01	o 884
0.00/0.01	o 881
0.00/0.01	o 879
0.00/0.01	o 877
0.00/0.01	o 875
0.00/0.01	o 873
0.00/0.01	o 871
0.00/0.01	o 869
0.00/0.01	o 867
0.00/0.01	o 865
0.00/0.01	o 863
0.00/0.02	o 861
0.00/0.02	o 859
0.00/0.02	o 857
0.00/0.02	o 856
0.00/0.02	o 854
0.00/0.02	o 853
0.00/0.02	o 852
0.00/0.02	o 851
0.00/0.02	o 850
0.00/0.02	o 848
0.00/0.02	o 847
0.00/0.02	o 844
0.00/0.02	o 843
0.00/0.02	o 842
0.00/0.02	o 841
0.00/0.02	o 840
0.00/0.02	o 838
0.00/0.02	o 836
0.00/0.02	o 834
0.00/0.02	o 833
0.00/0.02	o 832
0.00/0.02	o 831
0.00/0.02	o 830
0.00/0.02	o 828
0.00/0.02	o 827
0.00/0.02	o 826
0.00/0.02	o 825
0.00/0.02	o 824
0.00/0.02	o 823
0.00/0.02	o 822
0.00/0.02	o 820
0.00/0.02	o 819
0.00/0.02	o 818
0.00/0.02	o 817
0.00/0.02	o 816
0.00/0.02	o 815
0.00/0.02	o 814
0.00/0.02	o 812
0.00/0.02	o 811
0.00/0.02	o 810
0.00/0.02	o 809
0.00/0.02	o 808
0.00/0.02	o 807
0.00/0.02	o 806
0.00/0.02	o 805
0.00/0.02	o 804
0.00/0.02	o 803
0.00/0.02	o 802
0.00/0.02	o 800
0.00/0.02	o 799
0.00/0.02	o 798
0.00/0.02	o 797
0.00/0.02	o 796
0.00/0.02	o 795
0.00/0.02	o 794
0.00/0.02	o 793
0.00/0.02	o 792
0.00/0.02	o 791
0.00/0.02	o 790
0.00/0.02	o 789
0.00/0.02	o 788
0.00/0.02	o 787
0.00/0.02	o 786
0.00/0.02	o 785
0.00/0.02	o 784
0.00/0.02	o 783
0.00/0.02	o 782
0.00/0.02	o 780
0.00/0.02	o 779
0.00/0.02	o 778
0.00/0.02	o 777
0.00/0.02	o 776
0.00/0.02	o 775
0.00/0.02	o 774
0.00/0.02	o 773
0.00/0.02	o 772
0.00/0.02	o 770
0.00/0.02	o 769
0.00/0.02	o 768
0.00/0.02	o 767
0.00/0.02	o 766
0.00/0.02	o 765
0.00/0.02	o 763
0.00/0.02	o 762
0.00/0.02	o 761
0.00/0.02	o 760
0.00/0.02	o 758
0.00/0.02	o 757
0.00/0.02	o 756
0.00/0.02	o 755
0.00/0.02	o 754
0.00/0.02	o 753
0.00/0.02	o 752
0.00/0.02	o 751
0.00/0.03	o 750
0.00/0.03	o 749
0.00/0.03	o 748
0.00/0.03	o 747
0.00/0.03	o 746
0.00/0.03	o 744
0.00/0.03	o 743
0.00/0.03	o 742
0.00/0.03	o 741
0.00/0.03	o 740
0.00/0.03	o 739
0.00/0.03	o 738
0.00/0.03	o 737
0.00/0.03	o 736
0.00/0.03	o 735
0.00/0.03	o 734
0.00/0.03	o 733
0.00/0.03	o 732
0.00/0.03	o 731
0.00/0.03	o 730
0.00/0.03	o 729
0.00/0.03	o 728
0.00/0.03	o 727
0.00/0.03	o 726
0.00/0.03	o 725
0.00/0.03	o 724
0.00/0.03	o 723
0.00/0.03	o 722
0.00/0.03	o 721
0.00/0.03	o 719
0.00/0.03	o 718
0.00/0.03	o 717
0.00/0.03	o 716
0.00/0.03	o 715
0.00/0.03	o 714
0.00/0.03	o 713
0.00/0.03	o 712
0.00/0.03	o 711
0.00/0.03	o 710
0.00/0.03	o 709
0.00/0.03	o 708
0.00/0.03	o 707
0.00/0.03	o 706
0.00/0.03	o 705
0.00/0.03	o 703
0.00/0.03	o 702
0.00/0.03	o 701
0.00/0.03	o 700
0.00/0.03	o 699
0.00/0.03	o 698
0.00/0.03	o 697
0.00/0.03	o 696
0.00/0.03	o 695
0.00/0.03	o 694
0.00/0.03	o 693
0.00/0.03	o 692
0.00/0.03	o 691
0.00/0.03	o 690
0.00/0.03	o 689
0.00/0.03	o 688
0.00/0.03	o 687
0.00/0.03	o 686
0.00/0.03	o 685
0.00/0.03	o 684
0.00/0.03	o 683
0.00/0.03	o 682
0.00/0.03	o 681
0.00/0.03	o 680
0.00/0.03	o 679
0.00/0.03	o 678
0.00/0.03	o 677
0.00/0.03	o 676
0.00/0.03	o 675
0.00/0.03	o 674
0.00/0.03	o 673
0.00/0.03	o 672
0.00/0.03	o 671
0.00/0.03	o 670
0.00/0.03	o 669
0.00/0.03	o 667
0.00/0.03	o 666
0.00/0.03	o 665
0.00/0.03	o 664
0.00/0.03	o 663
0.00/0.03	o 662
0.00/0.03	o 661
0.00/0.03	o 660
0.00/0.03	o 659
0.00/0.03	o 658
0.00/0.03	o 657
0.00/0.03	o 656
0.00/0.03	o 654
0.00/0.03	o 653
0.00/0.04	o 652
0.00/0.04	o 651
0.00/0.04	o 650
0.00/0.04	o 649
0.00/0.04	o 647
0.00/0.04	o 646
0.00/0.04	o 645
0.00/0.04	o 644
0.00/0.04	o 643
0.00/0.04	o 642
0.00/0.04	o 641
0.00/0.04	o 640
0.00/0.04	o 639
0.00/0.04	o 638
0.00/0.04	o 637
0.00/0.04	o 636
0.00/0.04	o 635
0.00/0.04	o 634
0.00/0.04	o 633
0.00/0.04	o 632
0.00/0.04	o 631
0.00/0.04	o 630
0.00/0.04	o 629
0.00/0.04	o 628
0.00/0.04	o 627
0.00/0.04	o 626
0.00/0.04	o 625
0.00/0.04	o 624
0.00/0.04	o 622
0.00/0.04	o 621
0.00/0.04	o 620
0.00/0.04	o 619
0.00/0.04	o 618
0.00/0.04	o 617
0.00/0.04	o 616
0.00/0.04	o 615
0.04/0.05	s SATISFIABLE
0.04/0.05	o 615 
0.04/0.05	v 111110011010111001101001011000101111011101011101010101011110100011111010101111001000111101111111111111001011011110010110010110110110011010001101111111100111000111111111011101011001000100100100101101010001101000100001100010011010011010110000010100111111010011000101110111111111110011011001111010101111101111111000010101111011010011010000101110001011000110010110111100010110010010001000110001110100101110010011010000110000000111101100010100001101111100101000000100101100001010010111010110011101100111111101100101001010011001011111010100110101011000111001110100101111111000111010101010010011110011011101110111010111011000111011101110001001111000111011101110111011010011001111100001111011110000110110000111110001011100111111000100100101001000100111010001011010100000011001110111100111001110011010001011111110110001010011001110101110101111000010110100000001110001101101100111100011100110000010010100111000111111010100000100110000000011100000101011101001110111000111000110010101101100010001010110000000101111000010110011000111111100111010110010100000111101110100100101110111100110101110101011000101101101001010101011011000011001111110000001001000100100101010100001111000010010000
c [MSE2022] -- end -- [MSE2022]
